c colouring generated by benchmark framework
p edge 229 2519
v 1 2
v 2 8
v 3 0
v 4 7
v 5 6
v 6 4
v 7 4
v 8 7
v 9 3
v 10 6
v 11 5
v 12 2
v 13 3
v 14 8
v 15 5
v 16 7
v 17 1
v 18 6
v 19 4
v 20 0
v 21 4
v 22 7
v 23 4
v 24 5
v 25 2
v 26 8
v 27 2
v 28 5
v 29 0
v 30 6
v 31 3
v 32 7
v 33 1
v 34 4
v 35 6
v 36 8
v 37 1
v 38 4
v 39 7
v 40 0
v 41 0
v 42 8
v 43 5
v 44 7
v 45 1
v 46 3
v 47 4
v 48 5
v 49 6
v 50 8
v 51 8
v 52 3
v 53 0
v 54 5
v 55 8
v 56 6
v 57 5
v 58 7
v 59 1
v 60 4
v 61 7
v 62 4
v 63 3
v 64 8
v 65 2
v 66 1
v 67 3
v 68 0
v 69 6
v 70 5
v 71 7
v 72 6
v 73 8
v 74 7
v 75 4
v 76 4
v 77 2
v 78 3
v 79 1
v 80 8
v 81 6
v 82 0
v 83 4
v 84 2
v 85 5
v 86 7
v 87 1
v 88 8
v 89 5
v 90 2
v 91 1
v 92 3
v 93 4
v 94 6
v 95 6
v 96 2
v 97 0
v 98 5
v 99 7
v 100 8
v 101 4
v 102 5
v 103 1
v 104 1
v 105 3
v 106 0
v 107 7
v 108 5
v 109 4
v 110 3
v 111 6
v 112 8
v 113 4
v 114 6
v 115 8
v 116 7
v 117 1
v 118 0
v 119 0
v 120 5
v 121 5
v 122 2
v 123 0
v 124 3
v 125 4
v 126 4
v 127 4
v 128 6
v 129 4
v 130 7
v 131 4
v 132 8
v 133 5
v 134 5
v 135 1
v 136 2
v 137 3
v 138 1
v 139 0
v 140 0
v 141 8
v 142 6
v 143 3
v 144 7
v 145 8
v 146 5
v 147 6
v 148 4
v 149 3
v 150 1
v 151 4
v 152 6
v 153 1
v 154 2
v 155 0
v 156 2
v 157 8
v 158 0
v 159 5
v 160 7
v 161 5
v 162 1
v 163 4
v 164 3
v 165 6
v 166 6
v 167 7
v 168 2
v 169 2
v 170 0
v 171 7
v 172 8
v 173 5
v 174 1
v 175 3
v 176 5
v 177 4
v 178 8
v 179 0
v 180 5
v 181 2
v 182 6
v 183 2
v 184 7
v 185 3
v 186 6
v 187 3
v 188 1
v 189 4
v 190 8
v 191 1
v 192 8
v 193 5
v 194 5
v 195 2
v 196 2
v 197 7
v 198 0
v 199 3
v 200 6
v 201 3
v 202 8
v 203 1
v 204 0
v 205 1
v 206 6
v 207 1
v 208 2
v 209 4
v 210 2
v 211 5
v 212 1
v 213 6
v 214 8
v 215 8
v 216 3
v 217 7
v 218 0
v 219 3
v 220 6
v 221 7
v 222 4
v 223 4
v 224 5
v 225 2
v 226 5
v 227 1
v 228 1
v 229 8
